TOUR_SECTION
94
145
189
117
109
46
132
17
41
28
120
73
165
32
187
36
101
33
35
22
68
88
9
19
97
80
149
190
197
166
124
63
142
5
31
66
98
107
87
200
172
53
61
23
158
131
76
170
196
49
180
128
141
47
148
182
11
29
91
152
144
67
3
191
90
162
78
57
58
100
121
114
179
56
26
106
89
25
84
157
103
70
160
116
64
65
167
85
99
174
69
37
181
77
133
8
16
156
175
140
60
161
127
164
194
192
27
40
75
2
50
130
14
20
24
92
81
72
12
83
44
151
115
123
159
193
45
93
184
118
10
62
163
1
173
137
195
7
13
136
146
112
51
139
52
199
150
74
122
105
21
110
34
111
134
113
176
55
126
48
18
186
54
59
185
178
183
143
169
71
38
104
168
177
82
135
4
86
96
39
79
153
138
95
15
147
108
102
154
198
188
119
30
43
125
129
42
155
6
171
-1
EOF